p cnf 1510
-23 -471
-24 -474
-25 -477
-26 -480
-27 -483
-28 -486
-29 -489
-30 -492
-31 -495
-32 -498
-33 -501
-34 -504
-35 -507
-36 -510
-37 -513
-38 -516
-39 -519
-40 -522
-41 -525
-42 -528
-43 -531
-44 -534
-45 535
-46 536
-47 537
-48 538
-49 539
-50 540
-51 541
-52 542
-53 543
-54 544
-55 545
-56 -24
-56 -25
24 25 56
-57 -26
-57 -27
26 27 57
-58 -28
-58 -29
28 29 58
-59 -30
-59 -31
30 31 59
-60 -32
-60 -33
32 33 60
-61 -34
-61 -35
34 35 61
-62 -36
-62 -37
36 37 62
-63 -38
-63 -39
38 39 63
-64 -40
-64 -41
40 41 64
-65 -42
-65 -43
42 43 65
-66 -44
-66 -45
44 45 66
-67 -46
-67 -47
46 47 67
-68 -48
-68 -49
48 49 68
-69 -50
-69 -51
50 51 69
-70 -52
-70 -53
52 53 70
-71 -54
-71 -55
54 55 71
-72 56
-72 57
-56 -57 72
-73 58
-73 59
-58 -59 73
-74 60
-74 61
-60 -61 74
-75 62
-75 63
-62 -63 75
-76 64
-76 65
-64 -65 76
-77 66
-77 67
-66 -67 77
-78 68
-78 69
-68 -69 78
-79 70
-79 71
-70 -71 79
-80 72
-80 73
-72 -73 80
-81 74
-81 75
-74 -75 81
-82 76
-82 77
-76 -77 82
-83 78
-83 79
-78 -79 83
-84 80
-84 81
-80 -81 84
-85 82
-85 83
-82 -83 85
-86 84
-86 85
-84 -85 86
-87 -23
-87 24
23 -24 87
-88 23
-88 -24
-23 24 88
-89 -87
-89 -88
87 88 89
-90 23
-90 24
-23 -24 90
-91 -23
-91 -89
23 89 91
-92 23
-92 89
-23 -89 92
-93 -91
-93 -92
91 92 93
-94 23
-94 -89
-23 89 94
-95 -90
-95 -94
90 94 95
-96 -24
-96 25
24 -25 96
-97 24
-97 -25
-24 25 97
-98 -96
-98 -97
96 97 98
-99 24
-99 25
-24 -25 99
-100 95
-100 -98
-95 98 100
-101 -95
-101 98
95 -98 101
-102 -100
-102 -101
100 101 102
-103 -95
-103 -98
95 98 103
-104 -99
-104 -103
99 103 104
-105 -25
-105 26
25 -26 105
-106 25
-106 -26
-25 26 106
-107 -105
-107 -106
105 106 107
-108 25
-108 26
-25 -26 108
-109 104
-109 -107
-104 107 109
-110 -104
-110 107
104 -107 110
-111 -109
-111 -110
109 110 111
-112 -104
-112 -107
104 107 112
-113 -108
-113 -112
108 112 113
-114 -26
-114 27
26 -27 114
-115 26
-115 -27
-26 27 115
-116 -114
-116 -115
114 115 116
-117 26
-117 27
-26 -27 117
-118 113
-118 -116
-113 116 118
-119 -113
-119 116
113 -116 119
-120 -118
-120 -119
118 119 120
-121 -113
-121 -116
113 116 121
-122 -117
-122 -121
117 121 122
-123 -27
-123 28
27 -28 123
-124 27
-124 -28
-27 28 124
-125 -123
-125 -124
123 124 125
-126 27
-126 28
-27 -28 126
-127 122
-127 -125
-122 125 127
-128 -122
-128 125
122 -125 128
-129 -127
-129 -128
127 128 129
-130 -122
-130 -125
122 125 130
-131 -126
-131 -130
126 130 131
-132 -28
-132 29
28 -29 132
-133 28
-133 -29
-28 29 133
-134 -132
-134 -133
132 133 134
-135 28
-135 29
-28 -29 135
-136 131
-136 -134
-131 134 136
-137 -131
-137 134
131 -134 137
-138 -136
-138 -137
136 137 138
-139 -131
-139 -134
131 134 139
-140 -135
-140 -139
135 139 140
-141 -29
-141 30
29 -30 141
-142 29
-142 -30
-29 30 142
-143 -141
-143 -142
141 142 143
-144 29
-144 30
-29 -30 144
-145 140
-145 -143
-140 143 145
-146 -140
-146 143
140 -143 146
-147 -145
-147 -146
145 146 147
-148 -140
-148 -143
140 143 148
-149 -144
-149 -148
144 148 149
-150 -30
-150 31
30 -31 150
-151 30
-151 -31
-30 31 151
-152 -150
-152 -151
150 151 152
-153 30
-153 31
-30 -31 153
-154 149
-154 -152
-149 152 154
-155 -149
-155 152
149 -152 155
-156 -154
-156 -155
154 155 156
-157 -149
-157 -152
149 152 157
-158 -153
-158 -157
153 157 158
-159 -31
-159 32
31 -32 159
-160 31
-160 -32
-31 32 160
-161 -159
-161 -160
159 160 161
-162 31
-162 32
-31 -32 162
-163 158
-163 -161
-158 161 163
-164 -158
-164 161
158 -161 164
-165 -163
-165 -164
163 164 165
-166 -158
-166 -161
158 161 166
-167 -162
-167 -166
162 166 167
-168 -32
-168 33
32 -33 168
-169 32
-169 -33
-32 33 169
-170 -168
-170 -169
168 169 170
-171 32
-171 33
-32 -33 171
-172 167
-172 -170
-167 170 172
-173 -167
-173 170
167 -170 173
-174 -172
-174 -173
172 173 174
-175 -167
-175 -170
167 170 175
-176 -171
-176 -175
171 175 176
-177 -33
-177 34
33 -34 177
-178 33
-178 -34
-33 34 178
-179 -177
-179 -178
177 178 179
-180 33
-180 34
-33 -34 180
-181 176
-181 -179
-176 179 181
-182 -176
-182 179
176 -179 182
-183 -181
-183 -182
181 182 183
-184 -176
-184 -179
176 179 184
-185 -180
-185 -184
180 184 185
-186 -34
-186 35
34 -35 186
-187 34
-187 -35
-34 35 187
-188 -186
-188 -187
186 187 188
-189 34
-189 35
-34 -35 189
-190 185
-190 -188
-185 188 190
-191 -185
-191 188
185 -188 191
-192 -190
-192 -191
190 191 192
-193 -185
-193 -188
185 188 193
-194 -189
-194 -193
189 193 194
-195 -35
-195 36
35 -36 195
-196 35
-196 -36
-35 36 196
-197 -195
-197 -196
195 196 197
-198 35
-198 36
-35 -36 198
-199 194
-199 -197
-194 197 199
-200 -194
-200 197
194 -197 200
-201 -199
-201 -200
199 200 201
-202 -194
-202 -197
194 197 202
-203 -198
-203 -202
198 202 203
-204 -36
-204 37
36 -37 204
-205 36
-205 -37
-36 37 205
-206 -204
-206 -205
204 205 206
-207 36
-207 37
-36 -37 207
-208 203
-208 -206
-203 206 208
-209 -203
-209 206
203 -206 209
-210 -208
-210 -209
208 209 210
-211 -203
-211 -206
203 206 211
-212 -207
-212 -211
207 211 212
-213 -37
-213 38
37 -38 213
-214 37
-214 -38
-37 38 214
-215 -213
-215 -214
213 214 215
-216 37
-216 38
-37 -38 216
-217 212
-217 -215
-212 215 217
-218 -212
-218 215
212 -215 218
-219 -217
-219 -218
217 218 219
-220 -212
-220 -215
212 215 220
-221 -216
-221 -220
216 220 221
-222 -38
-222 39
38 -39 222
-223 38
-223 -39
-38 39 223
-224 -222
-224 -223
222 223 224
-225 38
-225 39
-38 -39 225
-226 221
-226 -224
-221 224 226
-227 -221
-227 224
221 -224 227
-228 -226
-228 -227
226 227 228
-229 -221
-229 -224
221 224 229
-230 -225
-230 -229
225 229 230
-231 -39
-231 40
39 -40 231
-232 39
-232 -40
-39 40 232
-233 -231
-233 -232
231 232 233
-234 39
-234 40
-39 -40 234
-235 230
-235 -233
-230 233 235
-236 -230
-236 233
230 -233 236
-237 -235
-237 -236
235 236 237
-238 -230
-238 -233
230 233 238
-239 -234
-239 -238
234 238 239
-240 -40
-240 41
40 -41 240
-241 40
-241 -41
-40 41 241
-242 -240
-242 -241
240 241 242
-243 40
-243 41
-40 -41 243
-244 239
-244 -242
-239 242 244
-245 -239
-245 242
239 -242 245
-246 -244
-246 -245
244 245 246
-247 -239
-247 -242
239 242 247
-248 -243
-248 -247
243 247 248
-249 -41
-249 42
41 -42 249
-250 41
-250 -42
-41 42 250
-251 -249
-251 -250
249 250 251
-252 41
-252 42
-41 -42 252
-253 248
-253 -251
-248 251 253
-254 -248
-254 251
248 -251 254
-255 -253
-255 -254
253 254 255
-256 -248
-256 -251
248 251 256
-257 -252
-257 -256
252 256 257
-258 -42
-258 43
42 -43 258
-259 42
-259 -43
-42 43 259
-260 -258
-260 -259
258 259 260
-261 42
-261 43
-42 -43 261
-262 257
-262 -260
-257 260 262
-263 -257
-263 260
257 -260 263
-264 -262
-264 -263
262 263 264
-265 -257
-265 -260
257 260 265
-266 -261
-266 -265
261 265 266
-267 -43
-267 44
43 -44 267
-268 43
-268 -44
-43 44 268
-269 -267
-269 -268
267 268 269
-270 43
-270 44
-43 -44 270
-271 266
-271 -269
-266 269 271
-272 -266
-272 269
266 -269 272
-273 -271
-273 -272
271 272 273
-274 -266
-274 -269
266 269 274
-275 -270
-275 -274
270 274 275
-276 -44
-276 45
44 -45 276
-277 44
-277 -45
-44 45 277
-278 -276
-278 -277
276 277 278
-279 44
-279 45
-44 -45 279
-280 275
-280 -278
-275 278 280
-281 -275
-281 278
275 -278 281
-282 -280
-282 -281
280 281 282
-283 -275
-283 -278
275 278 283
-284 -279
-284 -283
279 283 284
-285 -45
-285 46
45 -46 285
-286 45
-286 -46
-45 46 286
-287 -285
-287 -286
285 286 287
-288 45
-288 46
-45 -46 288
-289 284
-289 -287
-284 287 289
-290 -284
-290 287
284 -287 290
-291 -289
-291 -290
289 290 291
-292 -284
-292 -287
284 287 292
-293 -288
-293 -292
288 292 293
-294 -46
-294 47
46 -47 294
-295 46
-295 -47
-46 47 295
-296 -294
-296 -295
294 295 296
-297 46
-297 47
-46 -47 297
-298 293
-298 -296
-293 296 298
-299 -293
-299 296
293 -296 299
-300 -298
-300 -299
298 299 300
-301 -293
-301 -296
293 296 301
-302 -297
-302 -301
297 301 302
-303 -47
-303 48
47 -48 303
-304 47
-304 -48
-47 48 304
-305 -303
-305 -304
303 304 305
-306 47
-306 48
-47 -48 306
-307 302
-307 -305
-302 305 307
-308 -302
-308 305
302 -305 308
-309 -307
-309 -308
307 308 309
-310 -302
-310 -305
302 305 310
-311 -306
-311 -310
306 310 311
-312 -48
-312 49
48 -49 312
-313 48
-313 -49
-48 49 313
-314 -312
-314 -313
312 313 314
-315 48
-315 49
-48 -49 315
-316 311
-316 -314
-311 314 316
-317 -311
-317 314
311 -314 317
-318 -316
-318 -317
316 317 318
-319 -311
-319 -314
311 314 319
-320 -315
-320 -319
315 319 320
-321 -49
-321 50
49 -50 321
-322 49
-322 -50
-49 50 322
-323 -321
-323 -322
321 322 323
-324 49
-324 50
-49 -50 324
-325 320
-325 -323
-320 323 325
-326 -320
-326 323
320 -323 326
-327 -325
-327 -326
325 326 327
-328 -320
-328 -323
320 323 328
-329 -324
-329 -328
324 328 329
-330 -50
-330 51
50 -51 330
-331 50
-331 -51
-50 51 331
-332 -330
-332 -331
330 331 332
-333 50
-333 51
-50 -51 333
-334 329
-334 -332
-329 332 334
-335 -329
-335 332
329 -332 335
-336 -334
-336 -335
334 335 336
-337 -329
-337 -332
329 332 337
-338 -333
-338 -337
333 337 338
-339 -51
-339 52
51 -52 339
-340 51
-340 -52
-51 52 340
-341 -339
-341 -340
339 340 341
-342 51
-342 52
-51 -52 342
-343 338
-343 -341
-338 341 343
-344 -338
-344 341
338 -341 344
-345 -343
-345 -344
343 344 345
-346 -338
-346 -341
338 341 346
-347 -342
-347 -346
342 346 347
-348 -52
-348 53
52 -53 348
-349 52
-349 -53
-52 53 349
-350 -348
-350 -349
348 349 350
-351 52
-351 53
-52 -53 351
-352 347
-352 -350
-347 350 352
-353 -347
-353 350
347 -350 353
-354 -352
-354 -353
352 353 354
-355 -347
-355 -350
347 350 355
-356 -351
-356 -355
351 355 356
-357 -53
-357 54
53 -54 357
-358 53
-358 -54
-53 54 358
-359 -357
-359 -358
357 358 359
-360 53
-360 54
-53 -54 360
-361 356
-361 -359
-356 359 361
-362 -356
-362 359
356 -359 362
-363 -361
-363 -362
361 362 363
-364 -356
-364 -359
356 359 364
-365 -360
-365 -364
360 364 365
-366 -54
-366 55
54 -55 366
-367 54
-367 -55
-54 55 367
-368 -366
-368 -367
366 367 368
-369 54
-369 55
-54 -55 369
-370 365
-370 -368
-365 368 370
-371 -365
-371 368
365 -368 371
-372 -370
-372 -371
370 371 372
-373 -365
-373 -368
365 368 373
-374 -369
-374 -373
369 373 374
-375 23
-375 -93
-23 93 375
-376 -23
-376 25
23 -25 376
-377 -375
-377 -376
375 376 377
-378 23
-378 -102
-23 102 378
-379 -23
-379 26
23 -26 379
-380 -378
-380 -379
378 379 380
-381 23
-381 -111
-23 111 381
-382 -23
-382 27
23 -27 382
-383 -381
-383 -382
381 382 383
-384 23
-384 -120
-23 120 384
-385 -23
-385 28
23 -28 385
-386 -384
-386 -385
384 385 386
-387 23
-387 -129
-23 129 387
-388 -23
-388 29
23 -29 388
-389 -387
-389 -388
387 388 389
-390 23
-390 -138
-23 138 390
-391 -23
-391 30
23 -30 391
-392 -390
-392 -391
390 391 392
-393 23
-393 -147
-23 147 393
-394 -23
-394 31
23 -31 394
-395 -393
-395 -394
393 394 395
-396 23
-396 -156
-23 156 396
-397 -23
-397 32
23 -32 397
-398 -396
-398 -397
396 397 398
-399 23
-399 -165
-23 165 399
-400 -23
-400 33
23 -33 400
-401 -399
-401 -400
399 400 401
-402 23
-402 -174
-23 174 402
-403 -23
-403 34
23 -34 403
-404 -402
-404 -403
402 403 404
-405 23
-405 -183
-23 183 405
-406 -23
-406 35
23 -35 406
-407 -405
-407 -406
405 406 407
-408 23
-408 -192
-23 192 408
-409 -23
-409 36
23 -36 409
-410 -408
-410 -409
408 409 410
-411 23
-411 -201
-23 201 411
-412 -23
-412 37
23 -37 412
-413 -411
-413 -412
411 412 413
-414 23
-414 -210
-23 210 414
-415 -23
-415 38
23 -38 415
-416 -414
-416 -415
414 415 416
-417 23
-417 -219
-23 219 417
-418 -23
-418 39
23 -39 418
-419 -417
-419 -418
417 418 419
-420 23
-420 -228
-23 228 420
-421 -23
-421 40
23 -40 421
-422 -420
-422 -421
420 421 422
-423 23
-423 -237
-23 237 423
-424 -23
-424 41
23 -41 424
-425 -423
-425 -424
423 424 425
-426 23
-426 -246
-23 246 426
-427 -23
-427 42
23 -42 427
-428 -426
-428 -427
426 427 428
-429 23
-429 -255
-23 255 429
-430 -23
-430 43
23 -43 430
-431 -429
-431 -430
429 430 431
-432 23
-432 -264
-23 264 432
-433 -23
-433 44
23 -44 433
-434 -432
-434 -433
432 433 434
-435 23
-435 -273
-23 273 435
-436 -23
-436 45
23 -45 436
-437 -435
-437 -436
435 436 437
-438 23
-438 -282
-23 282 438
-439 -23
-439 46
23 -46 439
-440 -438
-440 -439
438 439 440
-441 23
-441 -291
-23 291 441
-442 -23
-442 47
23 -47 442
-443 -441
-443 -442
441 442 443
-444 23
-444 -300
-23 300 444
-445 -23
-445 48
23 -48 445
-446 -444
-446 -445
444 445 446
-447 23
-447 -309
-23 309 447
-448 -23
-448 49
23 -49 448
-449 -447
-449 -448
447 448 449
-450 23
-450 -318
-23 318 450
-451 -23
-451 50
23 -50 451
-452 -450
-452 -451
450 451 452
-453 23
-453 -327
-23 327 453
-454 -23
-454 51
23 -51 454
-455 -453
-455 -454
453 454 455
-456 23
-456 -336
-23 336 456
-457 -23
-457 52
23 -52 457
-458 -456
-458 -457
456 457 458
-459 23
-459 -345
-23 345 459
-460 -23
-460 53
23 -53 460
-461 -459
-461 -460
459 460 461
-462 23
-462 -354
-23 354 462
-463 -23
-463 54
23 -54 463
-464 -462
-464 -463
462 463 464
-465 23
-465 -363
-23 363 465
-466 -23
-466 55
23 -55 466
-467 -465
-467 -466
465 466 467
-468 23
-468 -372
-23 372 468
-469 1
-469 86
-1 -86 469
-470 -86
-470 87
86 -87 470
-471 -469
-471 -470
469 470 471
-472 2
-472 86
-2 -86 472
-473 -86
-473 -377
86 377 473
-474 -472
-474 -473
472 473 474
-475 3
-475 86
-3 -86 475
-476 -86
-476 -380
86 380 476
-477 -475
-477 -476
475 476 477
-478 4
-478 86
-4 -86 478
-479 -86
-479 -383
86 383 479
-480 -478
-480 -479
478 479 480
-481 5
-481 86
-5 -86 481
-482 -86
-482 -386
86 386 482
-483 -481
-483 -482
481 482 483
-484 6
-484 86
-6 -86 484
-485 -86
-485 -389
86 389 485
-486 -484
-486 -485
484 485 486
-487 7
-487 86
-7 -86 487
-488 -86
-488 -392
86 392 488
-489 -487
-489 -488
487 488 489
-490 8
-490 86
-8 -86 490
-491 -86
-491 -395
86 395 491
-492 -490
-492 -491
490 491 492
-493 9
-493 86
-9 -86 493
-494 -86
-494 -398
86 398 494
-495 -493
-495 -494
493 494 495
-496 10
-496 86
-10 -86 496
-497 -86
-497 -401
86 401 497
-498 -496
-498 -497
496 497 498
-499 11
-499 86
-11 -86 499
-500 -86
-500 -404
86 404 500
-501 -499
-501 -500
499 500 501
-502 12
-502 86
-12 -86 502
-503 -86
-503 -407
86 407 503
-504 -502
-504 -503
502 503 504
-505 13
-505 86
-13 -86 505
-506 -86
-506 -410
86 410 506
-507 -505
-507 -506
505 506 507
-508 14
-508 86
-14 -86 508
-509 -86
-509 -413
86 413 509
-510 -508
-510 -509
508 509 510
-511 15
-511 86
-15 -86 511
-512 -86
-512 -416
86 416 512
-513 -511
-513 -512
511 512 513
-514 16
-514 86
-16 -86 514
-515 -86
-515 -419
86 419 515
-516 -514
-516 -515
514 515 516
-517 17
-517 86
-17 -86 517
-518 -86
-518 -422
86 422 518
-519 -517
-519 -518
517 518 519
-520 18
-520 86
-18 -86 520
-521 -86
-521 -425
86 425 521
-522 -520
-522 -521
520 521 522
-523 19
-523 86
-19 -86 523
-524 -86
-524 -428
86 428 524
-525 -523
-525 -524
523 524 525
-526 20
-526 86
-20 -86 526
-527 -86
-527 -431
86 431 527
-528 -526
-528 -527
526 527 528
-529 21
-529 86
-21 -86 529
-530 -86
-530 -434
86 434 530
-531 -529
-531 -530
529 530 531
-532 22
-532 86
-22 -86 532
-533 -86
-533 -437
86 437 533
-534 -532
-534 -533
532 533 534
-535 -86
-535 -440
86 440 535
-536 -86
-536 -443
86 443 536
-537 -86
-537 -446
86 446 537
-538 -86
-538 -449
86 449 538
-539 -86
-539 -452
86 452 539
-540 -86
-540 -455
86 455 540
-541 -86
-541 -458
86 458 541
-542 -86
-542 -461
86 461 542
-543 -86
-543 -464
86 464 543
-544 -86
-544 -467
86 467 544
-545 -86
-545 468
86 -468 545
-546 -55
-546 374
55 -374 546
-547 23
-547 -546
-23 546 547
547
